JulietBench/Juliet_Based_Patch_Bench/linux/CWE-190-Integer-Overflow-or-Wraparound/CVE_2018_13053_5f936e19cc0ef97dbe3a56e9498922ad5ba1edef/Resultalarm_timer_nsleep_SnippetEQ.smt2
; benchmark generated from python API
(set-info :status unknown)
(declare-fun rdi () (_ BitVec 64))
(declare-fun rsi () (_ BitVec 64))
(declare-fun R () (_ BitVec 64))
(assert
 (let ((?x7 (bvadd rsi rdi)))
 (let (($x889 (= R ?x7)))
 (let ((?x9 (bvlshr ?x7 (_ bv63 64))))
 (let ((?x18 ((_ extract 0 0) ?x9)))
 (let (($x39 (= (_ bv0 1) ?x18)))
 (let (($x887 (bvsge ?x7 rdi)))
 (let (($x2708 (bvsge ?x7 rsi)))
 (let (($x2714 (and $x2708 $x887 $x39 $x889)))
 (let (($x2709 (= (_ bv9223372036854775807 64) R)))
 (let (($x25 (and (distinct (_ bv0 1) ?x18) true)))
 (let (($x2713 (and $x25 $x2709)))
 (let (($x55 (bvslt ?x7 rdi)))
 (let (($x2712 (and $x55 $x39 $x2709)))
 (let (($x2447 (bvslt ?x7 rsi)))
 (let (($x2711 (and $x2447 $x887 $x39 $x2709)))
 (let (($x2715 (or $x2711 $x2712 $x2713 $x2714)))
 (and $x889 $x2715))))))))))))))))))
(check-sat)
